(set-info :origin "driver benchmark extracted from Microsoft SDV")
(set-logic HORN)
(declare-fun Proc11 (Int Int Int Int Int Int Int Bool Int Int Int Int) Bool)
(declare-fun Proc18 (Int Int Int Int Int Int Int Bool) Bool)
(declare-fun Proc37
             (Int Int Int Int Int Int Int Bool Int Int Int Int Int Int)
             Bool)
(declare-fun Proc17 (Int Int Int Int Int Int Int Bool Int Int Int Int Int) Bool)
(declare-fun Proc10 (Int Int Int Int Int Int Int Bool Int Int Int Int) Bool)
(declare-fun Proc36
             (Int Int Int Int Int Int Int Bool Int Int Int Int Int Int)
             Bool)
(declare-fun Proc38 (Int Int Int Int Int Int Int Bool Int Int Int Int) Bool)
(declare-fun Proc2 (Int Int Int Int Int Int Int Bool Int Int Int Int Int) Bool)
(declare-fun Proc25 (Int Int Int Int Int Int Int Bool) Bool)
(declare-fun Proc9 (Int Int Int Int Int Int Int Bool Int Int) Bool)
(declare-fun Proc31 (Int Int Int Int Int Int Int Bool Int Int Int Int) Bool)
(declare-fun Proc29 (Int Int Int Int Int Int Int Bool Int) Bool)
(declare-fun Proc32 (Int Int Int Int Int Int Int Bool Int Int Int Int) Bool)
(declare-fun Proc20 (Int Int Int Int Int Int Int Bool Int Int) Bool)
(declare-fun Proc30 (Int Int Int Int Int Int Int Bool Int Int) Bool)
(declare-fun Proc23
             (Int
              Int
              Int
              Int
              Int
              Int
              Int
              Bool
              Int
              Int
              Int
              Int
              Int
              Int
              Bool
              Int
              Int)
             Bool)
(declare-fun Proc39 (Int Int Int Int Int Int Int Bool) Bool)
(declare-fun Proc21 (Int Int Int Int Int Int Int Bool Int Int) Bool)
(declare-fun Proc7
             (Int Int Int Int Int Int Int Bool Int Int Int Int Int Int)
             Bool)
(declare-fun Proc35 (Int Int Int Int Int Int Int Bool Int Int Int Int) Bool)
(declare-fun Proc3 (Int Int Int Int Int Int Int Bool Int Int Int Int) Bool)
(declare-fun Proc28 (Int Int Int Int Int Int Int Bool) Bool)
(declare-fun Proc12
             (Int Int Int Int Int Int Int Bool Int Int Int Int Int Int)
             Bool)
(declare-fun Proc33
             (Int Int Int Int Int Int Int Bool Int Int Int Int Int Int)
             Bool)
(declare-fun Proc26 (Int Int Int Int Int Int Int Bool) Bool)
(declare-fun Proc40
             (Int
              Int
              Int
              Int
              Int
              Int
              Int
              Bool
              Int
              Bool
              Int
              Int
              Int
              Int
              Int
              Int
              Int)
             Bool)
(declare-fun Proc0 (Int Int Int Int Int Int Int Bool Int Int) Bool)
(declare-fun Proc5 (Int Int Int Int Int Int Int Bool Int Int Int Int) Bool)
(declare-fun Proc14 (Int Int Int Int Int Int Int Bool Int Int) Bool)
(declare-fun Proc27 (Int Int Int Int Int Int Int Bool Int Int Int Int) Bool)
(declare-fun Proc4 (Int Int Int Int Int Int Int Bool Int Int Int) Bool)
(declare-fun Proc22 (Int Int Int Int Int Int Int Bool Int Int Int Int Int) Bool)
(declare-fun Proc6
             (Int Int Int Int Int Int Int Bool Int Int Int Int Int Int Int Int)
             Bool)
(declare-fun Proc1 (Int Int Int Int Int Int Int Bool Int Int Int Int) Bool)
(declare-fun Proc24 (Int Int Int Int Int Int Int Bool Int Int) Bool)
(declare-fun Proc15 (Int Int Int Int Int Int Int Bool Int Int Int Int Int) Bool)
(declare-fun Proc16 (Int Int Int Int Int Int Int Bool Int) Bool)
(declare-fun Proc13 (Int Int Int Int Int Int Int Bool Int Int Int Int) Bool)
(declare-fun Proc8
             (Int Int Int Int Int Int Int Bool Int Int Int Int Int Int Int Int)
             Bool)
(declare-fun Proc34
             (Int Int Int Int Int Int Int Bool Int Int Int Int Int Int)
             Bool)
(declare-fun Proc19 (Int Int Int Int Int Int Int Bool Int Int Int) Bool)
(assert (forall ((A Int)
         (B Int)
         (C Int)
         (D Int)
         (E Int)
         (F Int)
         (G Int)
         (H Int)
         (I Int)
         (J Int)
         (K Int)
         (L Int)
         (M Int)
         (N Int)
         (O Int)
         (P Int)
         (Q Int)
         (R Bool))
  (let ((a!1 (and (not (<= O (+ 4 Q))) (not (<= O P))))
        (a!2 (not (and (not (= G 0)) (Proc1 O M L K J I H R F E 1 D)))))
  (let ((a!3 (or (not R)
                 (not (= Q P))
                 (not a!1)
                 (= N 0)
                 (not (Proc0 O M L K J I H R 2 Q))
                 (= G 0)
                 a!2
                 (not (and (= C 0) (= B O))))))
    (=> (not a!3) (Proc2 P M L K J I H R N A F C B))))))
(assert (forall ((A Int)
         (B Int)
         (C Int)
         (D Int)
         (E Int)
         (F Int)
         (G Int)
         (H Int)
         (I Int)
         (J Int)
         (K Int)
         (L Int)
         (M Int)
         (N Int)
         (O Int)
         (P Int)
         (Q Int)
         (R Bool))
  (let ((a!1 (not (and (not (= I P)) (= F G))))
        (a!3 (and (not (<= B (+ 1 C))) (not (<= B G)))))
  (let ((a!2 (or a!1 (not (and (= E 0) (= D F)))))
        (a!4 (or (not (= I P))
                 (not (= C G))
                 (not a!3)
                 (not (and (Proc4 B P O N M L K R C H A) (= F A)))
                 (not (and (= E 0) (= D F))))))
  (let ((a!5 (not (or (not R)
                      (not (Proc3 Q P O N M L K R J I H G))
                      (and a!2 a!4)))))
    (=> a!5 (Proc5 Q P O N M L K R J I E D)))))))
(assert (forall ((A Int)
         (B Int)
         (C Int)
         (D Int)
         (E Int)
         (F Int)
         (G Int)
         (H Int)
         (I Int)
         (J Int)
         (K Int)
         (L Int)
         (M Int)
         (N Int)
         (O Int)
         (P Int)
         (Q Int)
         (R Bool)
         (S Int)
         (T Int)
         (U Int)
         (V Int)
         (W Int))
  (let ((a!1 (not (and (not (= N U)) (= H I))))
        (a!2 (not (and (= G J) (= F H) (= E L) (= D K))))
        (a!3 (and (not (<= B (+ 1 C))) (not (<= B I)))))
  (let ((a!4 (or (not (= N U))
                 (not (= C I))
                 (not a!3)
                 (not (and (Proc4 B U T L Q K O R C J A) (= H A)))
                 a!2)))
  (let ((a!5 (not (or (not R)
                      (= W 0)
                      (not (Proc6 V U T S Q P O R N 100 M 1 1 1 L K))
                      (not (Proc3 V U T L Q K O R W N J I))
                      (and (or a!1 a!2) a!4)))))
    (=> a!5 (Proc7 V U T S Q P O R W N G F E D)))))))
(assert (forall ((A Int)
         (B Int)
         (C Int)
         (D Int)
         (E Int)
         (F Int)
         (G Int)
         (H Int)
         (I Int)
         (J Int)
         (K Int)
         (L Int)
         (M Int)
         (N Int)
         (O Int)
         (R Bool))
  (let ((a!1 (and (not (<= M (+ 4 O))) (not (<= M N)))))
  (let ((a!2 (or (not R)
                 (not (= O N))
                 (not a!1)
                 (not (Proc8 M L K J I H G R F 28 0 7 0 0 O E))
                 (not (Proc9 M L K J I H G R D 98))
                 (not (and (= C E) (= B M))))))
    (=> (not a!2) (Proc10 N L K J I H G R F A C B))))))
(assert (forall ((A Int)
         (B Int)
         (C Int)
         (D Int)
         (E Int)
         (F Int)
         (G Int)
         (H Int)
         (I Int)
         (J Int)
         (K Int)
         (L Int)
         (M Int)
         (N Int)
         (O Int)
         (P Int)
         (Q Int)
         (R Bool)
         (S Int)
         (T Int)
         (U Int)
         (V Int)
         (W Int)
         (X Int)
         (Y Int)
         (Z Int)
         (A1 Int)
         (B1 Int))
  (let ((a!1 (and (not (<= Z (+ 1 B1))) (not (<= Z A1))))
        (a!2 (and (not (<= X (+ 1 Y))) (not (<= X Z))))
        (a!3 (and (not (<= V (+ 1 W))) (not (<= V X))))
        (a!4 (and (not (<= T (+ 1 U))) (not (<= T V))))
        (a!5 (and (not (<= Q (+ 1 S))) (not (<= Q T)))))
  (let ((a!6 (or (not R)
                 (not (= B1 A1))
                 (not a!1)
                 (not (= Y Z))
                 (not a!2)
                 (not (= W X))
                 (not a!3)
                 (not (= U V))
                 (not a!4)
                 (not (= S T))
                 (not a!5)
                 (= P 0)
                 (= O 0)
                 (= N 0)
                 (= M 0)
                 (= L 0)
                 (= K 0)
                 (= J 0)
                 (not (and (= I 0) (= H Q))))))
    (=> (not a!6) (Proc11 A1 G F E D C B R P A I H))))))
(assert (forall ((A Int)
         (B Int)
         (C Int)
         (D Int)
         (E Int)
         (F Int)
         (G Int)
         (H Int)
         (I Int)
         (J Int)
         (K Int)
         (L Int)
         (M Int)
         (N Int)
         (O Int)
         (P Int)
         (Q Int)
         (R Bool)
         (S Int)
         (T Int)
         (U Int))
  (let ((a!1 (not (and (= Q (- 1073741823)) (= T Q))))
        (a!2 (not (and (= P (- 1073741670)) (= T P))))
        (a!3 (not (and (= O (- 1073741771)) (= T O))))
        (a!4 (not (and (= N (- 1073741824)) (= T N)))))
  (let ((a!5 (and (or (= U 0) (not (= T 0)) (not (= S T)))
                  (or (= U 0) a!1 (not (= S T)))
                  (or (= U 0) a!2 (not (= S T)))
                  (or (= U 0) a!3 (not (= S T)))
                  (or (= U 0) a!4 (not (= S T))))))
    (=> (not (or (not R) a!5)) (Proc8 M L K J I H G R F E D C B A U S))))))
(assert (forall ((A Int)
         (B Int)
         (C Int)
         (D Int)
         (E Int)
         (F Int)
         (G Int)
         (H Int)
         (I Int)
         (J Int)
         (K Int)
         (L Int)
         (M Int)
         (N Int)
         (O Int)
         (P Int)
         (Q Int)
         (R Bool)
         (S Int)
         (T Int)
         (U Int)
         (V Int)
         (W Int)
         (X Int)
         (Y Int)
         (Z Int)
         (A1 Int)
         (B1 Int)
         (C1 Int)
         (D1 Int)
         (E1 Int))
  (let ((a!1 (and (not (<= C1 (+ 4 E1))) (not (<= C1 D1))))
        (a!2 (or (= Z 0)
                 (not (Proc12 C1 Y X Z W A1 V R U B1 T E1 S Q))
                 (not (= P Q))
                 (not (and (= O 259) (= N P)))))
        (a!3 (or (not (and (= Z 0) (= P C1))) (not (and (= O 259) (= N P)))))
        (a!4 (or (not (and (= A1 0) (= P C1))) (not (and (= O 259) (= N P)))))
        (a!6 (or (= Z 0)
                 (not (Proc12 C1 Y X Z W A1 V R M B1 L E1 K J))
                 (not (= P J))
                 (not (and (= O 259) (= N P)))))
        (a!7 (or (not (= P C1)) (not (and (= O 259) (= N P)))))
        (a!8 (or (= Z 0)
                 (not (Proc12 C1 Y X Z W A1 V R I B1 H E1 G F))
                 (not (= P F))
                 (not (and (= O 259) (= N P)))))
        (a!9 (or (= Z 0)
                 (not (Proc12 C1 Y X Z W A1 V R E B1 D E1 C B))
                 (not (= P B))
                 (not (and (= O 259) (= N P))))))
  (let ((a!5 (or (= B1 0) (and (or (= A1 0) (and a!2 a!3)) a!4))))
  (let ((a!10 (or (not R)
                  (not (= E1 D1))
                  (not a!1)
                  (and a!5
                       (or (= B1 0) (and a!6 a!3 a!7))
                       (or (= B1 0) (and a!8 a!3 a!7))
                       (or (= B1 0) (and a!9 a!3))))))
    (=> (not a!10) (Proc13 D1 Y X Z W A1 V R A B1 O N)))))))
(assert (forall ((A Int)
         (B Int)
         (C Int)
         (D Int)
         (E Int)
         (F Int)
         (G Int)
         (H Int)
         (I Int)
         (J Int)
         (K Int)
         (L Int)
         (R Bool))
  (let ((a!1 (not (or (not R) (not (= L K))))))
    (=> a!1 (Proc1 J I H G F E D R C B A L)))))
(assert (forall ((A Int)
         (B Int)
         (C Int)
         (D Int)
         (E Int)
         (F Int)
         (G Int)
         (H Int)
         (I Int)
         (J Int)
         (K Int)
         (L Int)
         (M Int)
         (N Int)
         (O Int)
         (R Bool))
  (let ((a!1 (and (not (<= M (+ 1 O))) (not (<= M N)))))
  (let ((a!2 (or (not R)
                 (not (= O N))
                 (not a!1)
                 (not (Proc14 M L K J I H G R O F))
                 (not (and (= E M) (= D F))))))
    (=> (not a!2) (Proc15 N L K J I H G R C B A E D))))))
(assert (forall ((A Int)
         (B Int)
         (C Int)
         (D Int)
         (E Int)
         (F Int)
         (G Int)
         (H Int)
         (I Int)
         (R Bool))
  (let ((a!1 (not (or (not R) (not (= I 1))))))
    (=> a!1 (Proc14 H G F E D C B R A I)))))
(assert (forall ((A Int)
         (B Int)
         (C Int)
         (D Int)
         (E Int)
         (F Int)
         (G Int)
         (H Int)
         (R Bool))
  (=> false (Proc16 H G F E D C B R A))))
(assert (forall ((A Int)
         (B Int)
         (C Int)
         (D Int)
         (E Int)
         (F Int)
         (G Int)
         (H Int)
         (I Int)
         (J Int)
         (K Int)
         (L Int)
         (M Int)
         (R Bool))
  (let ((a!1 (and (not (<= J (+ 1 L))) (not (<= J K))))
        (a!3 (or (not (and (= M 0) (= C K))) (not (= B C)))))
  (let ((a!2 (or (= M 0)
                 (not (= L K))
                 (not a!1)
                 (not (and (Proc16 J I H G F E D R L) (= C J)))
                 (not (= B C)))))
    (=> (not (or (not R) (and a!2 a!3))) (Proc4 K I H G F E D R A M B))))))
(assert (forall ((A Int)
         (B Int)
         (C Int)
         (D Int)
         (E Int)
         (F Int)
         (G Int)
         (H Int)
         (I Int)
         (J Int)
         (K Int)
         (L Int)
         (M Int)
         (N Int)
         (O Int)
         (P Int)
         (Q Int)
         (R Bool)
         (S Int)
         (T Int))
  (let ((a!1 (and (not (<= O (+ 1 Q))) (not (<= O P))))
        (a!2 (not (Proc16 O N M L K J I R Q)))
        (a!5 (or (not (= A 1))
                 (not (and (= H A) (= G B)))
                 (not (and (= F G) (= E H)))))
        (a!6 (or (= A 1)
                 (not (and (= H A) (= G B)))
                 (not (and (= F G) (= E H))))))
  (let ((a!3 (or (not (= S (- 1073741738)))
                 (not (= Q P))
                 (not a!1)
                 a!2
                 (not (and (= H I) (= G O)))
                 (not (and (= F G) (= E H)))))
        (a!4 (or (not (= S (- 1073741810)))
                 (not (= Q P))
                 (not a!1)
                 a!2
                 (not (and (= H I) (= G O)))
                 (not (and (= F G) (= E H)))))
        (a!7 (or (not (= Q P))
                 (not a!1)
                 a!2
                 (not (and (= H I) (= G O)))
                 (not (and (= F G) (= E H))))))
  (let ((a!8 (and (or (not (Proc15 P N M L K J I R C T S B A)) (and a!5 a!6))
                  a!7)))
  (let ((a!9 (and a!4 (or (= S (- 1073741810)) (= D 0) a!8))))
  (let ((a!10 (and a!3 (or (= S (- 1073741738)) a!9))))
    (=> (not (or (not R) (= T 0) a!10)) (Proc17 P N M L K J I R C T S F E)))))))))
(assert (forall ((A Int) (B Int) (C Int) (D Int) (E Int) (F Int) (G Int) (R Bool))
  (=> R (Proc18 G F E D C B A R))))
(assert (forall ((A Int)
         (B Int)
         (C Int)
         (D Int)
         (E Int)
         (F Int)
         (G Int)
         (H Int)
         (I Int)
         (J Int)
         (R Bool))
  (let ((a!1 (or (not R) (not (and (= J I) (= H 0) (= G 0))))))
    (=> (not a!1) (Proc19 F E D C I B A R J H G)))))
(assert (forall ((A Int)
         (B Int)
         (C Int)
         (D Int)
         (E Int)
         (F Int)
         (G Int)
         (H Int)
         (I Int)
         (J Int)
         (R Bool))
  (let ((a!1 (or (not R) (not (and (= J I) (= H 0))))))
    (=> (not a!1) (Proc20 G F E D C B A R J H)))))
(assert (forall ((A Int)
         (B Int)
         (C Int)
         (D Int)
         (E Int)
         (F Int)
         (G Int)
         (H Int)
         (I Int)
         (J Int)
         (K Int)
         (L Int)
         (M Int)
         (N Int)
         (O Int)
         (P Int)
         (Q Int)
         (R Bool)
         (S Int)
         (T Int)
         (U Int)
         (V Int)
         (W Int)
         (X Int)
         (Y Int)
         (Z Int)
         (A1 Int)
         (B1 Int)
         (C1 Int)
         (D1 Int)
         (E1 Int)
         (F1 Bool)
         (G1 Bool)
         (H1 Bool))
  (let ((a!1 (not (and (not (<= E1 0)) (Proc21 E1 D1 C1 B1 A1 Z Y H1 X W))))
        (a!2 (not (and (= I K)
                       (= H O)
                       (= G L)
                       (= F T)
                       (= E M)
                       (= D N)
                       (= F1 G1)
                       (= C P)
                       (= B W)))))
  (let ((a!3 (or (= L 0) (not (and (= K J) (not G1))) a!2))
        (a!4 (or (not (and (= L 0) (= R H1))) (not (and (= K A) (= G1 R))) a!2)))
  (let ((a!5 (and (or (= L 1) (and a!3 a!4)) (or (not (= L 1)) (and a!3 a!4)))))
  (let ((a!6 (not (or (not H1)
                      a!1
                      (not (Proc20 X D1 C1 B1 W Z Y H1 V U))
                      (not (Proc19 X V C1 B1 W Z U H1 T S Q))
                      (not (Proc18 X V T Q W S U H1))
                      (= T 0)
                      (not (Proc22 X V T Q W S U H1 P O N M L))
                      a!5))))
    (=> a!6 (Proc23 E1 D1 C1 B1 A1 Z Y H1 I H G F E D F1 C B))))))))
(assert (forall ((A Int)
         (B Int)
         (C Int)
         (D Int)
         (E Int)
         (F Int)
         (G Int)
         (H Int)
         (I Int)
         (J Int)
         (K Int)
         (L Int)
         (M Int)
         (R Bool))
  (let ((a!1 (or (not R)
                 (not (Proc13 M L K J I H G R F E D C))
                 (not (and (= B D) (= A C))))))
    (=> (not a!1) (Proc3 M L K J I H G R F E B A)))))
(assert (forall ((A Int)
         (B Int)
         (C Int)
         (D Int)
         (E Int)
         (F Int)
         (G Int)
         (H Int)
         (I Int)
         (J Int)
         (K Int)
         (L Int)
         (M Int)
         (R Bool))
  (let ((a!1 (and (or (not (= K J)) (not (= I K)))
                  (or (not (= K H)) (not (= I K))))))
  (let ((a!2 (and (or (= M L) a!1)
                  (or (not (= M L)) (not (= K G)) (not (= I K))))))
    (=> (not (or (not R) a!2)) (Proc24 F E D C L B A R M I))))))
(assert (forall ((A Int)
         (B Int)
         (C Int)
         (D Int)
         (E Int)
         (F Int)
         (G Int)
         (H Int)
         (I Int)
         (R Bool))
  (=> R (Proc9 I H G F E D C R B A))))
(assert (forall ((A Int)
         (B Int)
         (C Int)
         (D Int)
         (E Int)
         (F Int)
         (G Int)
         (H Int)
         (I Int)
         (J Int)
         (K Int)
         (L Int)
         (M Int)
         (N Int)
         (O Int)
         (P Int)
         (R Bool))
  (let ((a!1 (or (not R)
                 (not (Proc24 P O N M L K J R I H))
                 (= H 0)
                 (not (and (= G 1) (= F E))))))
    (=> (not a!1) (Proc6 P O N M L K J R I D C E B A G F)))))
(assert (forall ((A Int)
         (B Int)
         (C Int)
         (D Int)
         (E Int)
         (F Int)
         (G Int)
         (H Int)
         (I Int)
         (R Bool))
  (=> (not (or (not R) (= I 0))) (Proc0 H G F E D C B R A I))))
(assert (forall ((A Int)
         (B Int)
         (C Int)
         (D Int)
         (E Int)
         (F Int)
         (G Int)
         (H Int)
         (I Int)
         (J Int)
         (K Int)
         (L Int)
         (M Int)
         (R Bool))
  (let ((a!1 (or (not R)
                 (not (Proc25 M L K J I H G R))
                 (not (Proc10 M L K J I H G R F E D C))
                 (not (Proc26 C L K J I H G R))
                 (not (and (= B D) (= A C))))))
    (=> (not a!1) (Proc27 M L K J I H G R F E B A)))))
(assert (forall ((A Int)
         (B Int)
         (C Int)
         (D Int)
         (E Int)
         (F Int)
         (G Int)
         (H Int)
         (I Int)
         (J Int)
         (K Int)
         (L Int)
         (M Int)
         (N Int)
         (O Int)
         (P Int)
         (Q Int)
         (R Bool)
         (S Int))
  (let ((a!1 (or (not (and (= I S) (= H 0))) (not (and (= G H) (= F I)))))
        (a!2 (or (not (Proc2 S Q P O N M L R E K D C B))
                 (= A 0)
                 (not (and (= I B) (= H C)))
                 (not (and (= G H) (= F I))))))
  (let ((a!3 (not (or (not R)
                      (not (Proc24 S Q P O N M L R K J))
                      (= J 0)
                      (and a!1 a!2)))))
    (=> a!3 (Proc12 S Q P O N M L R E K D A G F))))))
(assert (forall ((A Int)
         (B Int)
         (C Int)
         (D Int)
         (E Int)
         (F Int)
         (G Int)
         (H Int)
         (I Int)
         (J Int)
         (K Int)
         (L Int)
         (M Int)
         (N Int)
         (R Bool))
  (let ((a!1 (or (not R)
                 (= N 0)
                 (= M 0)
                 (not (Proc28 L K J I H G F R))
                 (not (Proc29 L K J I H G F R N))
                 (not (Proc5 L K J I H G F R E N D C))
                 (not (Proc30 C K J I H G F R D N))
                 (not (and (= B D) (= A C))))))
    (=> (not a!1) (Proc31 L K J I H G F R E N B A)))))
(assert (forall ((A Int)
         (B Int)
         (C Int)
         (D Int)
         (E Int)
         (F Int)
         (G Int)
         (H Int)
         (I Int)
         (J Int)
         (K Int)
         (L Int)
         (M Int)
         (N Int)
         (R Bool))
  (let ((a!1 (or (not R)
                 (= N 0)
                 (= M 0)
                 (not (Proc29 L K J I H G F R N))
                 (not (Proc5 L K J I H G F R E N D C))
                 (not (and (= B D) (= A C))))))
    (=> (not a!1) (Proc32 L K J I H G F R E N B A)))))
(assert (forall ((A Int)
         (B Int)
         (C Int)
         (D Int)
         (E Int)
         (F Int)
         (G Int)
         (H Int)
         (I Int)
         (J Int)
         (K Int)
         (L Int)
         (M Int)
         (N Int)
         (O Int)
         (P Int)
         (Q Int)
         (R Bool)
         (S Int))
  (let ((a!1 (or (not R)
                 (= S 0)
                 (= Q 0)
                 (not (Proc29 P O N M L K J R S))
                 (not (Proc7 P O N M L K J R I S H G F E))
                 (not (and (= D H) (= C G) (= B F) (= A E))))))
    (=> (not a!1) (Proc33 P O N M L K J R I S D C B A)))))
(assert (forall ((A Int)
         (B Int)
         (C Int)
         (D Int)
         (E Int)
         (F Int)
         (G Int)
         (H Int)
         (I Int)
         (J Int)
         (K Int)
         (L Int)
         (M Int)
         (N Int)
         (O Int)
         (P Int)
         (Q Int)
         (R Bool)
         (S Int))
  (let ((a!1 (or (not R)
                 (= S 0)
                 (= Q 0)
                 (not (Proc29 P O N M L K J R S))
                 (not (Proc7 P O N M L K J R I S H G F E))
                 (not (and (= D H) (= C G) (= B F) (= A E))))))
    (=> (not a!1) (Proc34 P O N M L K J R I S D C B A)))))
(assert (forall ((A Int)
         (B Int)
         (C Int)
         (D Int)
         (E Int)
         (F Int)
         (G Int)
         (H Int)
         (I Int)
         (J Int)
         (K Int)
         (L Int)
         (M Int)
         (N Int)
         (R Bool))
  (let ((a!1 (or (not R)
                 (= N 0)
                 (= M 0)
                 (not (Proc29 L K J I H G F R N))
                 (not (Proc5 L K J I H G F R E N D C))
                 (not (and (= B D) (= A C))))))
    (=> (not a!1) (Proc35 L K J I H G F R E N B A)))))
(assert (forall ((A Int)
         (B Int)
         (C Int)
         (D Int)
         (E Int)
         (F Int)
         (G Int)
         (H Int)
         (I Int)
         (J Int)
         (K Int)
         (L Int)
         (M Int)
         (N Int)
         (O Int)
         (P Int)
         (Q Int)
         (R Bool)
         (S Int))
  (let ((a!1 (or (not R)
                 (= S 0)
                 (= Q 0)
                 (not (Proc29 P O N M L K J R S))
                 (not (Proc7 P O N M L K J R I S H G F E))
                 (not (and (= D H) (= C G) (= B F) (= A E))))))
    (=> (not a!1) (Proc36 P O N M L K J R I S D C B A)))))
(assert (forall ((A Int)
         (B Int)
         (C Int)
         (D Int)
         (E Int)
         (F Int)
         (G Int)
         (H Int)
         (I Int)
         (J Int)
         (K Int)
         (L Int)
         (M Int)
         (N Int)
         (O Int)
         (P Int)
         (Q Int)
         (R Bool)
         (S Int))
  (let ((a!1 (or (not R)
                 (= S 0)
                 (= Q 0)
                 (not (Proc29 P O N M L K J R S))
                 (not (Proc7 P O N M L K J R I S H G F E))
                 (not (and (= D H) (= C G) (= B F) (= A E))))))
    (=> (not a!1) (Proc37 P O N M L K J R I S D C B A)))))
(assert (forall ((A Int)
         (B Int)
         (C Int)
         (D Int)
         (E Int)
         (F Int)
         (G Int)
         (H Int)
         (I Int)
         (J Int)
         (K Int)
         (L Int)
         (M Int)
         (N Int)
         (R Bool))
  (let ((a!1 (or (not R)
                 (= N 0)
                 (= M 0)
                 (not (Proc29 L K J I H G F R N))
                 (not (Proc28 L K J I H G F R))
                 (not (Proc5 L K J I H G F R E N D C))
                 (not (Proc30 C K J I H G F R D N))
                 (not (and (= B D) (= A C))))))
    (=> (not a!1) (Proc38 L K J I H G F R E N B A)))))
(assert (forall ((A Int)
         (B Int)
         (C Int)
         (D Int)
         (E Int)
         (F Int)
         (G Int)
         (H Int)
         (R Bool))
  (=> (not (or (not R) (= H 0))) (Proc29 G F E D C B A R H))))
(assert (forall ((A Int)
         (B Int)
         (C Int)
         (D Int)
         (E Int)
         (F Int)
         (G Int)
         (H Int)
         (I Int)
         (J Int)
         (K Int)
         (L Int)
         (M Int)
         (N Int)
         (O Int)
         (P Int)
         (Q Int)
         (R Bool)
         (S Int)
         (T Int)
         (U Int)
         (V Int)
         (W Int)
         (X Int)
         (Y Int)
         (Z Int)
         (A1 Int)
         (B1 Int)
         (C1 Int)
         (D1 Int)
         (E1 Int)
         (I1 Int)
         (J1 Int)
         (K1 Int)
         (L1 Int)
         (M1 Int)
         (N1 Int)
         (O1 Int)
         (P1 Int)
         (Q1 Int)
         (R1 Int)
         (S1 Int)
         (T1 Int)
         (U1 Int)
         (V1 Int)
         (W1 Int)
         (X1 Int)
         (Y1 Int)
         (Z1 Int)
         (A2 Int)
         (B2 Int)
         (C2 Int)
         (D2 Int)
         (E2 Int)
         (F2 Int)
         (G2 Int)
         (H2 Int)
         (I2 Int)
         (J2 Int)
         (K2 Int)
         (L2 Int)
         (M2 Int)
         (N2 Int)
         (O2 Int)
         (P2 Int)
         (Q2 Int)
         (R2 Int)
         (S2 Int)
         (T2 Int)
         (U2 Int)
         (V2 Int)
         (W2 Int)
         (X2 Int)
         (Y2 Int))
  (let ((a!1 (and (not (<= W2 (+ 12 Y2))) (not (<= W2 X2))))
        (a!2 (and (not (<= Y1 (+ 1 Z1))) (not (<= Y1 A2))))
        (a!3 (not (and (= R1 T1) (= Q1 U2) (= P1 V1) (= O1 U1) (= N1 S1)))))
  (let ((a!4 (or (not (= W1 1))
                 (not (and (= V1 T2) (= U1 R2) (= T1 X1) (= S1 W1)))
                 a!3))
        (a!5 (or (= W1 1)
                 (not (and (= M1 W1) (= L1 X1)))
                 (not (<= 0 B2))
                 (not (= K1 1))
                 (= K1 0)
                 (not (Proc31 L1 U2 U2 T2 S2 R2 M1 R J1 U2 I1 E1))
                 (not (<= 0 I1))
                 (not (= D1 1))
                 (= D1 0)
                 (not (Proc32 E1 U2 U2 T2 S2 R2 M1 R C1 U2 B1 A1))
                 (not (<= 0 B1))
                 (not (= Z 1))
                 (= Z 0)
                 (not (Proc34 A1 U2 U2 T2 S2 R2 M1 R Y U2 X W V U))
                 (not (<= 0 X))
                 (not (= T 1))
                 (= T 0)
                 (not (Proc37 W U2 U2 V S2 U M1 R S U2 Q P O N))
                 (not (<= 0 Q))
                 (not (= M 1))
                 (= M 0)
                 (not (Proc33 P U2 U2 O S2 N M1 R L U2 K J I H))
                 (not (<= 0 K))
                 (not (= G 1))
                 (= G 0)
                 (not (Proc36 J U2 U2 I S2 H M1 R F U2 E D C B))
                 (not (<= 0 E))
                 (not (= A 1))
                 (= A 0)
                 (not (and (= V1 C) (= U1 B) (= T1 D) (= S1 M1)))
                 a!3)))
  (let ((a!6 (not (or (not R)
                      (not (= Y2 X2))
                      (not a!1)
                      (not (Proc11 W2 V2 U2 T2 S2 R2 Q2 R P2 Y2 O2 N2))
                      (not (<= 0 O2))
                      (not (= M2 1))
                      (= M2 0)
                      (not (Proc27 N2 V2 U2 T2 S2 R2 Q2 R L2 K2 J2 I2))
                      (not (<= 0 J2))
                      (not (= H2 1))
                      (= H2 0)
                      (not (Proc39 I2 V2 U2 T2 S2 R2 Q2 R))
                      (not (Proc35 I2 V2 U2 T2 S2 R2 Q2 R G2 U2 F2 E2))
                      (not (<= 0 F2))
                      (not (= D2 1))
                      (= D2 0)
                      (= U2 0)
                      (not (Proc38 E2 U2 U2 T2 S2 R2 Q2 R C2 U2 B2 A2))
                      (not (= Z1 A2))
                      (not a!2)
                      (not (Proc17 Y1 U2 U2 T2 S2 R2 Q2 R Z1 U2 B2 X1 W1))
                      (and a!4 a!5)))))
    (=> a!6 (Proc22 X2 V2 U2 T2 S2 R2 Q2 R R1 Q1 P1 O1 N1)))))))
(assert (forall ((A Int) (B Int) (C Int) (D Int) (E Int) (F Int) (G Int) (R Bool))
  (=> R (Proc25 G F E D C B A R))))
(assert (forall ((A Int) (B Int) (C Int) (D Int) (E Int) (F Int) (G Int) (R Bool))
  (=> R (Proc26 G F E D C B A R))))
(assert (forall ((A Int) (B Int) (C Int) (D Int) (E Int) (F Int) (G Int) (R Bool))
  (=> R (Proc28 G F E D C B A R))))
(assert (forall ((A Int)
         (B Int)
         (C Int)
         (D Int)
         (E Int)
         (F Int)
         (G Int)
         (H Int)
         (I Int)
         (R Bool))
  (=> R (Proc30 I H G F E D C R B A))))
(assert (forall ((A Int) (B Int) (C Int) (D Int) (E Int) (F Int) (G Int) (R Bool))
  (=> R (Proc39 G F E D C B A R))))
(assert (forall ((A Int)
         (B Int)
         (C Int)
         (D Int)
         (E Int)
         (F Int)
         (G Int)
         (H Int)
         (I Int)
         (J Int)
         (K Int)
         (L Int)
         (M Int)
         (N Int)
         (O Int)
         (P Int)
         (Q Int)
         (R Bool)
         (S Int)
         (T Int)
         (U Int)
         (V Int)
         (W Int)
         (X Int)
         (Y Int)
         (Z Int)
         (A1 Int)
         (B1 Int)
         (C1 Int)
         (D1 Int)
         (E1 Int)
         (I1 Int)
         (J1 Int)
         (K1 Int)
         (L1 Int)
         (M1 Int)
         (N1 Int)
         (O1 Int)
         (P1 Int)
         (Q1 Int)
         (R1 Int)
         (S1 Int)
         (T1 Int)
         (U1 Int)
         (V1 Int)
         (W1 Int)
         (X1 Int)
         (Y1 Int)
         (Z1 Int)
         (A2 Int)
         (B2 Int)
         (C2 Int)
         (D2 Int)
         (E2 Int)
         (F2 Int)
         (G2 Int)
         (H2 Int)
         (I2 Int)
         (J2 Int)
         (K2 Int)
         (L2 Int)
         (M2 Int)
         (N2 Int)
         (O2 Int))
  (let ((a!1 (and (not (<= M2 (+ 240 O2)))
                  (not (<= M2 N2))
                  (= L2 M2)
                  (not (<= K2 (+ 4 L2)))
                  (not (<= K2 M2))
                  (= J2 K2)
                  (not (<= I2 (+ 332 J2)))
                  (not (<= I2 K2))
                  (= H2 I2)
                  (not (<= G2 (+ 4 H2)))
                  (not (<= G2 I2))
                  (= F2 G2)
                  (not (<= E2 (+ 536 F2)))
                  (not (<= E2 G2))
                  (= D2 E2)
                  (not (<= C2 (+ 240 D2)))))
        (a!2 (and (not (<= C2 E2))
                  (= B2 C2)
                  (not (<= A2 (+ 240 B2)))
                  (not (<= A2 C2))
                  (= Z1 A2)
                  (not (<= Y1 (+ 536 Z1)))
                  (not (<= Y1 A2))
                  (= X1 Y1)
                  (not (<= W1 (+ 240 X1)))
                  (not (<= W1 Y1))
                  (= V1 W1)
                  (not (<= U1 (+ 4 V1)))
                  (not (<= U1 W1))
                  (= T1 U1)
                  (not (<= S1 (+ 536 T1)))
                  (not (<= S1 U1))
                  (= R1 S1)
                  (not (<= Q1 (+ 332 R1)))
                  (not (<= Q1 S1))
                  (= P1 Q1)
                  (not (<= O1 (+ 240 P1)))
                  (not (<= O1 Q1))
                  (= N1 O1)
                  (not (<= M1 (+ 240 N1)))
                  (not (<= M1 O1))
                  (= L1 M1)
                  (not (<= K1 (+ 332 L1)))
                  (not (<= K1 M1))
                  (= J1 K1)
                  (not (<= I1 (+ 4 J1)))
                  (not (<= I1 K1))
                  (= E1 I1)
                  (not (<= D1 (+ 68 E1)))
                  (not (<= D1 I1))
                  (= C1 D1)
                  (not (<= B1 (+ 536 C1)))
                  (not (<= B1 D1))
                  (= A1 B1)
                  (not (<= Z (+ 240 A1)))
                  (not (<= Z B1))
                  (= Y Z)
                  (not (<= X (+ 240 Y)))
                  (not (<= X Z))
                  (= W X)
                  (not (<= V (+ 240 W)))
                  (not (<= V X))
                  (= U V)
                  (not (<= T (+ 240 U)))
                  (not (<= T V))
                  (= S T)
                  (not (<= Q (+ 240 S)))
                  (not (<= Q T))
                  (= P Q)
                  (not (<= O (+ 40 P)))
                  (not (<= O Q))
                  (= N O)
                  (not (<= M (+ 332 N)))
                  (not (<= M O))
                  (= L M)
                  (not (<= K (+ 4 L)))
                  (not (<= K M))
                  (= J K)
                  (not (<= I (+ 40 J)))
                  (not (<= I K)))))
  (let ((a!3 (or (not R)
                 (not (= O2 N2))
                 (not a!1)
                 (not a!2)
                 (not (and (= H I) (= G S))))))
    (=> (not a!3) (Proc21 N2 F E D C B A R H G))))))
(assert (forall ((A Int)
         (B Int)
         (C Int)
         (D Int)
         (E Int)
         (F Int)
         (G Int)
         (H Int)
         (I Int)
         (J Int)
         (K Int)
         (L Int)
         (M Int)
         (N Int)
         (O Int)
         (P Int)
         (Q Int)
         (R Bool)
         (S Int)
         (T Int)
         (U Int)
         (V Int)
         (W Int)
         (X Int)
         (F1 Bool)
         (G1 Bool))
  (let ((a!1 (or (not G1)
                 (not (and (Proc23 X W V U T S Q true P O N M L K F1 J I)
                           (not F1))))))
    (=> (not a!1) (Proc40 X W V U T S Q G1 H R G F E D C B A)))))
(assert (let ((a!1 (exists ((V0 Int)
                    (V1 Int)
                    (V2 Int)
                    (V3 Int)
                    (V4 Int)
                    (V5 Int)
                    (V6 Int)
                    (V7 Bool)
                    (V8 Int)
                    (V9 Bool)
                    (V10 Int)
                    (V11 Int)
                    (V12 Int)
                    (V13 Int)
                    (V14 Int)
                    (V15 Int)
                    (V16 Int))
             (not (=> (and (Proc40 V0
                                   V1
                                   V2
                                   V3
                                   V4
                                   V5
                                   V6
                                   V7
                                   V8
                                   V9
                                   V10
                                   V11
                                   V12
                                   V13
                                   V14
                                   V15
                                   V16)
                           (not false))
                      false)))))
  (not a!1)))

(check-sat)
